23550
23,121,261,262,382,426,464,473,478,552,668,732,737,838,960,969,984,992,1034,1126,1136,1143,1144,1177,1178,1206,1216,1246,1272,1322,1361,1457,1499,1619,1630,1672,1729,1731,1744,1779,1809,1891,1904,1911,1932
